18 112
96 24
91 7
80 50
20 84
53 15
63 68
1 123
32 73
8 89
88 4
12 13
26 125
21 33
15 152
32 11
5 129
88 21
82 20
39 2
41 128
61 50
28 14
92 29
73 50
5 42
30 41
2 107
1 28
50 40
7 36
61 16
29 32
10 163
57 57
50 21
33 82
39 91
28 60
37 32
31 6
86 29
93 29
36 2
33 140
80 14
11 9
30 134
74 17
42 58
